120
150
43
52
57
55
45
51
47
51
52
57
50
58
42
44
58
60
60
55
52
52
40
51
48
60
50
58
51
43
51
51
47
48
52
53
60
46
53
42
56
58
52
48
41
40
45
59
52
44
45
53
57
52
41
48
58
43
59
41
44
50
46
46
58
50
40
41
53
55
54
47
60
56
58
50
46
56
53
55
48
52
56
59
48
55
43
47
48
48
41
58
44
42
42
54
42
55
47
41
57
55
48
47
51
58
55
55
56
46
52
60
41
43
48
55
60
42
47
47
49
41
